service_id,date,exception_type
1,20240715,2
3,20240715,2
4,20240715,2
5,20240715,2
1,20240716,2
3,20240716,2
4,20240716,2
5,20240716,2
1,20240717,2
3,20240717,2
4,20240717,2
5,20240717,2
1,20240718,2
3,20240718,2
4,20240718,2
5,20240718,2
1,20240719,2
3,20240719,2
4,20240719,2
5,20240719,2
4,20240720,2
5,20240720,2
5,20240721,2
1,20240722,2
3,20240722,2
4,20240722,2
5,20240722,2
1,20240723,2
3,20240723,2
4,20240723,2
5,20240723,2
1,20240724,2
3,20240724,2
4,20240724,2
5,20240724,2
1,20240725,2
3,20240725,2
4,20240725,2
5,20240725,2
1,20240726,2
3,20240726,2
4,20240726,2
5,20240726,2
4,20240727,2
5,20240727,2
5,20240728,2
1,20240729,2
3,20240729,2
4,20240729,2
5,20240729,2
1,20240730,2
3,20240730,2
4,20240730,2
5,20240730,2
1,20240731,2
3,20240731,2
4,20240731,2
5,20240731,2
1,20240801,2
3,20240801,2
4,20240801,2
5,20240801,2
1,20240802,2
3,20240802,2
4,20240802,2
5,20240802,2
4,20240803,2
5,20240803,2
5,20240804,2
1,20240805,2
3,20240805,2
4,20240805,2
5,20240805,2
1,20240806,2
3,20240806,2
4,20240806,2
5,20240806,2
1,20240807,2
3,20240807,2
4,20240807,2
5,20240807,2
1,20240808,2
3,20240808,2
4,20240808,2
5,20240808,2
1,20240809,2
3,20240809,2
4,20240809,2
5,20240809,2
4,20240810,2
5,20240810,2
5,20240811,2
1,20240812,2
3,20240812,2
4,20240812,2
5,20240812,2
1,20240813,2
3,20240813,2
4,20240813,2
5,20240813,2
1,20240814,2
3,20240814,2
4,20240814,2
5,20240814,2
1,20240815,2
3,20240815,2
4,20240815,2
5,20240815,2
1,20240816,2
3,20240816,2
4,20240816,2
5,20240816,2
4,20240817,2
5,20240817,2
5,20240818,2
1,20240819,2
3,20240819,2
4,20240819,2
5,20240819,2
1,20240820,2
3,20240820,2
4,20240820,2
5,20240820,2
1,20240821,2
3,20240821,2
4,20240821,2
5,20240821,2
1,20240822,2
3,20240822,2
4,20240822,2
5,20240822,2
1,20240823,2
3,20240823,2
4,20240823,2
5,20240823,2
4,20240824,2
5,20240824,2
5,20240825,2
1,20240826,2
3,20240826,2
4,20240826,2
5,20240826,2
1,20240827,2
3,20240827,2
4,20240827,2
5,20240827,2
1,20240828,2
3,20240828,2
4,20240828,2
5,20240828,2
1,20240829,2
3,20240829,2
4,20240829,2
5,20240829,2
1,20240830,2
3,20240830,2
4,20240830,2
5,20240830,2
4,20240831,2
5,20240831,2
5,20240901,2
1,20240902,2
3,20240902,2
4,20240902,2
5,20240902,2
1,20240903,2
3,20240903,2
4,20240903,2
5,20240903,2
1,20240904,2
3,20240904,2
4,20240904,2
5,20240904,2
1,20240905,2
3,20240905,2
4,20240905,2
5,20240905,2
1,20240906,2
3,20240906,2
4,20240906,2
5,20240906,2
4,20240907,2
5,20240907,2
5,20240908,2
1,20240909,2
3,20240909,2
4,20240909,2
5,20240909,2
1,20240910,2
3,20240910,2
4,20240910,2
5,20240910,2
1,20240911,2
3,20240911,2
4,20240911,2
5,20240911,2
1,20240912,2
3,20240912,2
4,20240912,2
5,20240912,2
1,20240913,2
3,20240913,2
4,20240913,2
5,20240913,2
4,20240914,2
5,20240914,2
5,20240915,2
1,20240916,2
3,20240916,2
4,20240916,2
5,20240916,2
1,20240917,2
3,20240917,2
4,20240917,2
5,20240917,2
1,20240918,2
3,20240918,2
4,20240918,2
5,20240918,2
1,20240919,2
3,20240919,2
4,20240919,2
5,20240919,2
1,20240920,2
3,20240920,2
4,20240920,2
5,20240920,2
4,20240921,2
5,20240921,2
5,20240922,2
1,20240923,2
3,20240923,2
4,20240923,2
5,20240923,2
1,20240924,2
3,20240924,2
4,20240924,2
5,20240924,2
1,20240925,2
3,20240925,2
4,20240925,2
5,20240925,2
1,20240926,2
3,20240926,2
4,20240926,2
5,20240926,2
1,20240927,2
3,20240927,2
4,20240927,2
5,20240927,2
4,20240928,2
5,20240928,2
5,20240929,2
1,20240930,2
3,20240930,2
4,20240930,2
5,20240930,2
1,20241001,2
3,20241001,2
4,20241001,2
5,20241001,2
1,20241002,2
3,20241002,2
4,20241002,2
5,20241002,2
1,20241003,2
3,20241003,2
4,20241003,2
5,20241003,2
1,20241004,2
3,20241004,2
4,20241004,2
5,20241004,2
4,20241005,2
5,20241005,2
5,20241006,2
1,20241007,2
3,20241007,2
4,20241007,2
5,20241007,2
1,20241008,2
3,20241008,2
4,20241008,2
5,20241008,2
1,20241009,2
3,20241009,2
4,20241009,2
5,20241009,2
1,20241010,2
3,20241010,2
4,20241010,2
5,20241010,2
1,20241011,2
3,20241011,2
4,20241011,2
5,20241011,2
4,20241012,2
5,20241012,2
5,20241013,2
1,20241014,2
3,20241014,2
4,20241014,2
5,20241014,2
1,20241015,2
3,20241015,2
4,20241015,2
5,20241015,2
1,20241016,2
3,20241016,2
4,20241016,2
5,20241016,2
1,20241017,2
3,20241017,2
4,20241017,2
5,20241017,2
1,20241018,2
3,20241018,2
4,20241018,2
5,20241018,2
4,20241019,2
5,20241019,2
5,20241020,2
1,20241021,2
3,20241021,2
4,20241021,2
5,20241021,2
1,20241022,2
3,20241022,2
4,20241022,2
5,20241022,2
1,20241023,2
3,20241023,2
4,20241023,2
5,20241023,2
1,20241024,2
3,20241024,2
4,20241024,2
5,20241024,2
1,20241025,2
3,20241025,2
4,20241025,2
5,20241025,2
4,20241026,2
5,20241026,2
5,20241027,2
1,20241028,2
3,20241028,2
4,20241028,2
5,20241028,2
1,20241029,2
3,20241029,2
4,20241029,2
5,20241029,2
1,20241030,2
3,20241030,2
4,20241030,2
5,20241030,2
1,20241031,2
3,20241031,2
4,20241031,2
5,20241031,2
1,20241101,2
3,20241101,2
4,20241101,2
5,20241101,2
4,20241102,2
5,20241102,2
5,20241103,2
1,20241104,2
3,20241104,2
4,20241104,2
5,20241104,2
1,20241105,2
3,20241105,2
4,20241105,2
5,20241105,2
1,20241106,2
3,20241106,2
4,20241106,2
5,20241106,2
1,20241107,2
3,20241107,2
4,20241107,2
5,20241107,2
1,20241108,2
3,20241108,2
4,20241108,2
5,20241108,2
4,20241109,2
5,20241109,2
5,20241110,2
1,20241111,2
3,20241111,2
4,20241111,2
5,20241111,2
1,20241112,2
3,20241112,2
4,20241112,2
5,20241112,2
1,20241113,2
3,20241113,2
4,20241113,2
5,20241113,2
1,20241114,2
3,20241114,2
4,20241114,2
5,20241114,2
1,20241115,2
3,20241115,2
4,20241115,2
5,20241115,2
4,20241116,2
5,20241116,2
5,20241117,2
1,20241118,2
3,20241118,2
4,20241118,2
5,20241118,2
1,20241119,2
3,20241119,2
4,20241119,2
5,20241119,2
1,20241120,2
3,20241120,2
4,20241120,2
5,20241120,2
1,20241121,2
3,20241121,2
4,20241121,2
5,20241121,2
1,20241122,2
3,20241122,2
4,20241122,2
5,20241122,2
4,20241123,2
5,20241123,2
5,20241124,2
1,20241125,2
3,20241125,2
4,20241125,2
5,20241125,2
1,20241126,2
3,20241126,2
4,20241126,2
5,20241126,2
1,20241127,2
3,20241127,2
4,20241127,2
5,20241127,2
1,20241128,2
3,20241128,2
4,20241128,2
5,20241128,2
1,20241129,2
3,20241129,2
4,20241129,2
5,20241129,2
4,20241130,2
5,20241130,2
5,20241201,2
1,20241202,2
3,20241202,2
4,20241202,2
5,20241202,2
1,20241203,2
3,20241203,2
4,20241203,2
5,20241203,2
1,20241204,2
3,20241204,2
4,20241204,2
5,20241204,2
1,20241205,2
3,20241205,2
4,20241205,2
5,20241205,2
1,20241206,2
3,20241206,2
4,20241206,2
5,20241206,2
4,20241207,2
5,20241207,2
5,20241208,2
1,20241209,2
3,20241209,2
4,20241209,2
5,20241209,2
1,20241210,2
3,20241210,2
4,20241210,2
5,20241210,2
1,20241211,2
3,20241211,2
4,20241211,2
5,20241211,2
1,20241212,2
3,20241212,2
4,20241212,2
5,20241212,2
1,20241213,2
3,20241213,2
4,20241213,2
5,20241213,2
4,20241214,2
5,20241214,2
5,20241215,2
1,20241216,2
3,20241216,2
4,20241216,2
5,20241216,2
1,20241217,2
3,20241217,2
4,20241217,2
5,20241217,2
1,20241218,2
3,20241218,2
4,20241218,2
5,20241218,2
1,20241219,2
3,20241219,2
4,20241219,2
5,20241219,2
1,20241220,2
3,20241220,2
4,20241220,2
5,20241220,2
4,20241221,2
5,20241221,2
5,20241222,2
1,20241223,2
3,20241223,2
4,20241223,2
5,20241223,2
1,20241224,2
3,20241224,2
4,20241224,2
5,20241224,2
1,20241225,2
3,20241225,2
4,20241225,2
5,20241225,2
1,20241226,2
3,20241226,2
4,20241226,2
5,20241226,2
1,20241227,2
3,20241227,2
4,20241227,2
5,20241227,2
4,20241228,2
5,20241228,2
5,20241229,2
1,20241230,2
3,20241230,2
4,20241230,2
5,20241230,2
1,20241231,2
3,20241231,2
4,20241231,2
5,20241231,2
